words_hard_train/3334.qaiger
aag 138 24 0 1 114
2
4
12
14
32
34
46
48
72
74
96
98
124
138
142
150
162
170
196
198
224
234
238
240
277
6 3 5
8 2 4
10 7 9
16 13 15
18 12 14
20 17 19
22 9 21
24 8 20
26 23 25
28 11 27
30 25 19
36 33 35
38 32 34
40 37 39
42 31 40
44 43 39
50 47 49
52 46 48
54 51 53
56 44 55
58 45 54
60 57 59
62 28 61
64 30 41
66 65 43
68 62 66
70 59 53
76 73 75
78 72 74
80 77 79
82 70 81
84 71 80
86 83 85
88 68 87
90 67 61
92 90 87
94 85 79
100 97 99
102 96 98
104 101 103
106 94 105
108 95 104
110 107 109
112 92 111
114 93 110
116 113 115
118 89 116
120 88 117
122 119 121
126 123 124
128 122 125
130 63 91
132 131 86
134 130 87
136 133 135
140 137 139
144 67 143
146 29 66
148 145 147
152 10 150
154 153 27
156 146 143
158 155 157
160 152 20
164 161 163
166 158 165
168 149 167
172 168 171
174 146 60
176 175 130
178 173 177
180 169 170
182 179 181
184 141 183
186 136 138
188 185 187
190 129 189
192 127 191
194 109 103
200 197 199
202 196 198
204 201 203
206 194 205
208 195 204
210 207 209
212 210 114
214 211 115
216 213 215
218 217 121
220 216 120
222 219 221
226 223 224
228 192 227
230 222 225
232 229 231
236 233 234
242 238 241
244 239 240
246 243 245
248 209 203
250 246 248
252 247 249
254 251 253
256 255 220
258 237 257
260 255 215
262 254 214
264 261 263
266 264 221
268 232 235
270 267 269
272 258 271
274 236 256
276 273 275
i0 1 x1[0]
i1 2 y1[0]
i2 1 x1[1]
i3 2 y1[1]
i4 1 x1[2]
i5 2 y1[2]
i6 1 x1[3]
i7 2 y1[3]
i8 1 x1[4]
i9 2 y1[4]
i10 1 x1[5]
i11 2 y1[5]
i12 2 y2[5]
i13 2 y2[4]
i14 2 y2[2]
i15 2 y2[0]
i16 2 y2[1]
i17 2 y2[3]
i18 1 x1[6]
i19 2 y1[6]
i20 2 y2[6]
i21 2 y2[7]
i22 1 x1[7]
i23 2 y1[7]
o0 bv[0]
c
simplified
  >
    add
      -164
      add
        1 x1
        2 y1
    invert
      2 y2
