words_hard_train/3334.qaiger.qdimacs
p cnf 138 343
a 1 98 36 6 16 48 119 23 0
e 2 3 4 5 7 8 9 10 11 12 13 14 15 17 18 19 20 21 22 24 25 26 27 28 29 30 31 32 33 34 35 37 38 39 40 41 42 43 44 45 46 47 49 50 51 52 53 54 55 56 57 58 59 60 61 62 63 64 65 66 67 68 69 70 71 72 73 74 75 76 77 78 79 80 81 82 83 84 85 86 87 88 89 90 91 92 93 94 95 96 97 99 100 101 102 103 104 105 106 107 108 109 110 111 112 113 114 115 116 117 118 120 121 122 123 124 125 126 127 128 129 130 131 132 133 134 135 136 137 138 0
1 2 3 0
-1 -3 0
-2 -3 0
-1 -2 4 0
1 -4 0
2 -4 0
3 4 5 0
-3 -5 0
-4 -5 0
6 7 8 0
-6 -8 0
-7 -8 0
-6 -7 9 0
6 -9 0
7 -9 0
8 9 10 0
-8 -10 0
-9 -10 0
4 10 11 0
-4 -11 0
-10 -11 0
-4 -10 12 0
4 -12 0
10 -12 0
11 12 13 0
-11 -13 0
-12 -13 0
5 13 14 0
-5 -14 0
-13 -14 0
12 9 15 0
-12 -15 0
-9 -15 0
16 17 18 0
-16 -18 0
-17 -18 0
-16 -17 19 0
16 -19 0
17 -19 0
18 19 20 0
-18 -20 0
-19 -20 0
15 -20 21 0
-15 -21 0
20 -21 0
21 19 22 0
-21 -22 0
-19 -22 0
23 24 25 0
-23 -25 0
-24 -25 0
-23 -24 26 0
23 -26 0
24 -26 0
25 26 27 0
-25 -27 0
-26 -27 0
-22 27 28 0
22 -28 0
-27 -28 0
22 -27 29 0
-22 -29 0
27 -29 0
28 29 30 0
-28 -30 0
-29 -30 0
-14 30 31 0
14 -31 0
-30 -31 0
-15 20 32 0
15 -32 0
-20 -32 0
32 21 33 0
-32 -33 0
-21 -33 0
-31 -33 34 0
31 -34 0
33 -34 0
29 26 35 0
-29 -35 0
-26 -35 0
36 37 38 0
-36 -38 0
-37 -38 0
-36 -37 39 0
36 -39 0
37 -39 0
38 39 40 0
-38 -40 0
-39 -40 0
-35 40 41 0
35 -41 0
-40 -41 0
35 -40 42 0
-35 -42 0
40 -42 0
41 42 43 0
-41 -43 0
-42 -43 0
-34 43 44 0
34 -44 0
-43 -44 0
33 30 45 0
-33 -45 0
-30 -45 0
-45 43 46 0
45 -46 0
-43 -46 0
42 39 47 0
-42 -47 0
-39 -47 0
48 49 50 0
-48 -50 0
-49 -50 0
-48 -49 51 0
48 -51 0
49 -51 0
50 51 52 0
-50 -52 0
-51 -52 0
-47 52 53 0
47 -53 0
-52 -53 0
47 -52 54 0
-47 -54 0
52 -54 0
53 54 55 0
-53 -55 0
-54 -55 0
-46 55 56 0
46 -56 0
-55 -56 0
46 -55 57 0
-46 -57 0
55 -57 0
56 57 58 0
-56 -58 0
-57 -58 0
44 -58 59 0
-44 -59 0
58 -59 0
-44 58 60 0
44 -60 0
-58 -60 0
59 60 61 0
-59 -61 0
-60 -61 0
61 -62 63 0
-61 -63 0
62 -63 0
-61 62 64 0
61 -64 0
-62 -64 0
31 45 65 0
-31 -65 0
-45 -65 0
65 -43 66 0
-65 -66 0
43 -66 0
-65 43 67 0
65 -67 0
-43 -67 0
66 67 68 0
-66 -68 0
-67 -68 0
68 69 70 0
-68 -70 0
-69 -70 0
33 71 72 0
-33 -72 0
-71 -72 0
14 -33 73 0
-14 -73 0
33 -73 0
72 73 74 0
-72 -74 0
-73 -74 0
-5 -75 76 0
5 -76 0
75 -76 0
76 13 77 0
-76 -77 0
-13 -77 0
-73 71 78 0
73 -78 0
-71 -78 0
77 78 79 0
-77 -79 0
-78 -79 0
-76 -10 80 0
76 -80 0
10 -80 0
80 81 82 0
-80 -82 0
-81 -82 0
-79 82 83 0
79 -83 0
-82 -83 0
74 83 84 0
-74 -84 0
-83 -84 0
-84 85 86 0
84 -86 0
-85 -86 0
-73 -30 87 0
73 -87 0
30 -87 0
87 -65 88 0
-87 -88 0
65 -88 0
86 88 89 0
-86 -89 0
-88 -89 0
84 -85 90 0
-84 -90 0
85 -90 0
89 90 91 0
-89 -91 0
-90 -91 0
70 91 92 0
-70 -92 0
-91 -92 0
-68 -69 93 0
68 -93 0
69 -93 0
92 93 94 0
-92 -94 0
-93 -94 0
64 94 95 0
-64 -95 0
-94 -95 0
63 95 96 0
-63 -96 0
-95 -96 0
54 51 97 0
-54 -97 0
-51 -97 0
98 99 100 0
-98 -100 0
-99 -100 0
-98 -99 101 0
98 -101 0
99 -101 0
100 101 102 0
-100 -102 0
-101 -102 0
-97 102 103 0
97 -103 0
-102 -103 0
97 -102 104 0
-97 -104 0
102 -104 0
103 104 105 0
-103 -105 0
-104 -105 0
-105 -57 106 0
105 -106 0
57 -106 0
105 57 107 0
-105 -107 0
-57 -107 0
106 107 108 0
-106 -108 0
-107 -108 0
108 60 109 0
-108 -109 0
-60 -109 0
-108 -60 110 0
108 -110 0
60 -110 0
109 110 111 0
-109 -111 0
-110 -111 0
111 -112 113 0
-111 -113 0
112 -113 0
-96 113 114 0
96 -114 0
-113 -114 0
-111 112 115 0
111 -115 0
-112 -115 0
114 115 116 0
-114 -116 0
-115 -116 0
116 -117 118 0
-116 -118 0
117 -118 0
-119 120 121 0
119 -121 0
-120 -121 0
119 -120 122 0
-119 -122 0
120 -122 0
121 122 123 0
-121 -123 0
-122 -123 0
104 101 124 0
-104 -124 0
-101 -124 0
-123 -124 125 0
123 -125 0
124 -125 0
123 124 126 0
-123 -126 0
-124 -126 0
125 126 127 0
-125 -127 0
-126 -127 0
127 -110 128 0
-127 -128 0
110 -128 0
118 128 129 0
-118 -129 0
-128 -129 0
127 107 130 0
-127 -130 0
-107 -130 0
-127 -107 131 0
127 -131 0
107 -131 0
130 131 132 0
-130 -132 0
-131 -132 0
-132 110 133 0
132 -133 0
-110 -133 0
-116 117 134 0
116 -134 0
-117 -134 0
133 134 135 0
-133 -135 0
-134 -135 0
-129 135 136 0
129 -136 0
-135 -136 0
-118 -128 137 0
118 -137 0
128 -137 0
136 137 138 0
-136 -138 0
-137 -138 0
-138 0
